TCS_Benchmarks/redos_fix/corpus3_output_distinct_733_732_49_0.smt2
(set-logic QF_S)
(declare-const x String)
(assert (str.in.re x (re.inter  (re.++ (re.* (re.union (re.range "\u{00}" "\u{09}") (re.range "\u{0b}" "\u{0c}") (re.range "\u{0e}" "\u{84}") (re.range "\u{86}" "\u{ff}")) ) (re.+  (re.union  (str.to.re "\u{20}")  (str.to_re "\u{09}")) ))  (re.++ (re.* (re.union (re.range "\u{00}" "\u{09}") (re.range "\u{0b}" "\u{0c}") (re.range "\u{0e}" "\u{84}") (re.range "\u{86}" "\u{ff}")) ) (re.++  (re.++ (re.+  (re.union  (str.to.re "\u{20}")  (str.to_re "\u{09}")) ) (re.++  (str.to.re "\u{56}") (re.++  (str.to.re "\u{52}") (re.++  (str.to.re "\u{3d}") (re.++  (str.to.re "\u{22}") (re.++ (re.* (re.union (re.range "\u{00}" "\u{09}") (re.range "\u{0b}" "\u{0c}") (re.range "\u{0e}" "\u{84}") (re.range "\u{86}" "\u{ff}")) ) (re.++  (str.to.re "\u{22}") (re.++ (re.+  (re.union  (str.to.re "\u{20}")  (str.to_re "\u{09}")) ) (re.++  (str.to.re "\u{56}") (re.++  (str.to.re "\u{4d}") (re.++  (str.to.re "\u{3d}") (re.++  (str.to.re "\u{22}") (re.++ (re.* (re.union (re.range "\u{00}" "\u{09}") (re.range "\u{0b}" "\u{0c}") (re.range "\u{0e}" "\u{84}") (re.range "\u{86}" "\u{ff}")) )  (str.to.re "\u{22}")))))))))))))) (re.+  (re.union  (str.to.re "\u{20}")  (str.to_re "\u{09}")) ))) )))
(check-sat)
(get-model)