TCS_Benchmarks/redos_fix/corpus3_output_distinct_733_732_49_0.txt
(.*)([ \t]+)
(.*)([ \t]+VR="(.*)"[ \t]+VM="(.*)")([ \t]+)